c Created with the Wolfram Language : www.wolfram.com
c 
p edge 100 508
e 2 3
e 7 8
e 1 9
e 9 10
e 6 11
e 10 12
e 3 13
e 9 13
e 11 13
e 9 15
e 11 15
e 7 16
e 7 19
e 6 20
e 3 21
e 9 21
e 11 21
e 11 22
e 14 22
e 16 22
e 10 23
e 20 23
e 3 24
e 9 24
e 16 24
e 20 24
e 4 25
e 21 25
e 11 26
e 5 27
e 17 27
e 19 27
e 20 27
e 25 27
e 14 28
e 5 29
e 18 29
e 2 30
e 2 31
e 13 32
e 18 32
e 19 32
e 14 33
e 31 33
e 14 34
e 24 34
e 11 35
e 13 35
e 25 35
e 26 35
e 18 36
e 20 36
e 29 36
e 35 36
e 9 37
e 10 37
e 16 37
e 21 37
e 11 38
e 13 38
e 16 39
e 21 39
e 35 39
e 36 39
e 38 39
e 2 40
e 36 40
e 30 41
e 32 41
e 34 41
e 13 42
e 15 42
e 32 43
e 41 43
e 3 44
e 12 44
e 30 44
e 35 44
e 5 45
e 14 45
e 23 45
e 37 45
e 6 46
e 28 46
e 10 47
e 15 47
e 39 47
e 40 47
e 45 47
e 3 48
e 7 48
e 13 48
e 25 48
e 33 48
e 35 48
e 8 49
e 17 49
e 23 49
e 42 49
e 5 50
e 12 50
e 20 50
e 25 50
e 35 50
e 36 50
e 6 51
e 21 51
e 31 51
e 35 51
e 36 51
e 37 51
e 4 52
e 14 52
e 28 52
e 37 52
e 38 52
e 39 52
e 18 53
e 38 53
e 46 53
e 5 54
e 15 54
e 25 54
e 42 54
e 46 54
e 11 55
e 29 55
e 43 55
e 46 55
e 51 55
e 1 56
e 4 56
e 9 56
e 10 56
e 14 56
e 23 56
e 31 56
e 32 56
e 34 57
e 56 57
e 9 58
e 12 58
e 23 58
e 28 58
e 13 59
e 16 59
e 17 59
e 26 59
e 27 59
e 36 59
e 41 59
e 54 59
e 56 59
e 7 60
e 13 60
e 19 60
e 24 60
e 25 60
e 28 60
e 32 60
e 33 60
e 34 60
e 35 60
e 38 60
e 40 60
e 50 60
e 13 61
e 38 61
e 58 61
e 6 62
e 38 62
e 48 62
e 54 62
e 1 63
e 21 63
e 24 64
e 30 64
e 35 64
e 50 64
e 56 64
e 59 64
e 2 65
e 12 65
e 15 65
e 16 65
e 23 65
e 38 65
e 44 65
e 49 65
e 54 65
e 59 65
e 61 65
e 4 66
e 8 66
e 27 66
e 40 66
e 43 66
e 57 66
e 8 67
e 22 67
e 41 67
e 44 67
e 48 67
e 58 67
e 66 67
e 27 68
e 34 68
e 38 68
e 49 68
e 28 69
e 47 69
e 49 69
e 14 70
e 16 70
e 30 70
e 54 70
e 57 70
e 59 70
e 62 70
e 65 70
e 66 70
e 3 71
e 9 71
e 11 71
e 12 71
e 14 71
e 19 71
e 38 71
e 46 71
e 53 71
e 56 71
e 59 71
e 70 71
e 6 72
e 9 72
e 19 72
e 21 72
e 25 72
e 28 72
e 31 72
e 57 72
e 3 73
e 21 73
e 23 73
e 28 73
e 30 73
e 33 73
e 48 73
e 50 73
e 69 73
e 1 74
e 7 74
e 18 74
e 38 74
e 43 74
e 49 74
e 51 74
e 15 75
e 20 75
e 24 75
e 48 75
e 63 75
e 64 75
e 65 75
e 7 76
e 22 76
e 24 76
e 33 76
e 42 76
e 50 76
e 68 76
e 74 76
e 4 77
e 10 77
e 18 77
e 28 77
e 38 77
e 66 77
e 72 77
e 5 78
e 9 78
e 17 78
e 26 78
e 28 78
e 37 78
e 47 78
e 49 78
e 60 78
e 10 79
e 20 79
e 22 79
e 29 79
e 35 79
e 38 79
e 42 79
e 43 79
e 47 79
e 48 79
e 56 79
e 59 79
e 70 79
e 74 79
e 75 79
e 7 80
e 14 80
e 18 80
e 26 80
e 29 80
e 61 80
e 73 80
e 3 81
e 36 81
e 40 81
e 42 81
e 43 81
e 52 81
e 61 81
e 64 81
e 66 81
e 67 81
e 14 82
e 43 82
e 60 82
e 63 82
e 67 82
e 74 82
e 77 82
e 32 83
e 34 83
e 36 83
e 37 83
e 48 83
e 52 83
e 68 83
e 72 83
e 73 83
e 4 84
e 10 84
e 16 84
e 17 84
e 19 84
e 20 84
e 22 84
e 23 84
e 39 84
e 46 84
e 52 84
e 55 84
e 62 84
e 10 85
e 13 85
e 26 85
e 28 85
e 32 85
e 61 85
e 73 85
e 78 85
e 84 85
e 1 86
e 2 86
e 3 86
e 25 86
e 26 86
e 31 86
e 47 86
e 57 86
e 59 86
e 65 86
e 84 86
e 8 87
e 20 87
e 23 87
e 62 87
e 84 87
e 5 88
e 15 88
e 17 88
e 47 88
e 83 88
e 1 89
e 4 89
e 13 89
e 22 89
e 29 89
e 44 89
e 62 89
e 74 89
e 85 89
e 11 90
e 24 90
e 25 90
e 33 90
e 39 90
e 42 90
e 46 90
e 65 90
e 81 90
e 82 90
e 1 91
e 8 91
e 13 91
e 29 91
e 30 91
e 34 91
e 54 91
e 58 91
e 66 91
e 71 91
e 81 91
e 1 92
e 2 92
e 6 92
e 10 92
e 19 92
e 26 92
e 59 92
e 63 92
e 66 92
e 69 92
e 81 92
e 88 92
e 5 93
e 11 93
e 34 93
e 36 93
e 53 93
e 56 93
e 59 93
e 61 93
e 70 93
e 72 93
e 86 93
e 90 93
e 91 93
e 3 94
e 13 94
e 20 94
e 28 94
e 40 94
e 41 94
e 51 94
e 55 94
e 82 94
e 3 95
e 9 95
e 32 95
e 41 95
e 45 95
e 51 95
e 61 95
e 64 95
e 77 95
e 94 95
e 15 96
e 17 96
e 43 96
e 56 96
e 57 96
e 73 96
e 75 96
e 88 96
e 94 96
e 3 97
e 16 97
e 21 97
e 24 97
e 65 97
e 72 97
e 74 97
e 10 98
e 13 98
e 20 98
e 21 98
e 27 98
e 28 98
e 37 98
e 52 98
e 56 98
e 86 98
e 97 98
e 13 99
e 15 99
e 36 99
e 40 99
e 43 99
e 48 99
e 53 99
e 57 99
e 60 99
e 76 99
e 79 99
e 82 99
e 91 99
e 93 99
e 9 100
e 10 100
e 18 100
e 44 100
e 53 100
e 59 100
e 64 100
e 65 100
e 75 100
e 77 100
e 83 100
e 91 100
e 95 100
e 97 100
